Normalized Data/p03_8_normalized_split0.vrp
NAME:p03_8_NORMALIZED_split
BEST_KNOWN: 0
COMMENT: 0
DIMENSION: 421
CAPACITY: 100
EDGE_WEIGHT_FORMAT: FUNCTION
EDGE_WEIGHT_TYPE: EXACT_2D
NODE_COORD_SECTION
1 0.00000 0.00000
2 -13 -41
3 -13 -41
4 -13 -41
5 -13 -41
6 -13 -41
7 -13 -41
8 10 44
9 10 44
10 10 44
11 10 44
12 10 44
13 5 -38
14 5 -38
15 5 -38
16 -17 -9
17 -17 -9
18 -17 -9
19 20 -38
20 20 -38
21 20 -38
22 20 -38
23 43 20
24 43 20
25 43 20
26 43 20
27 43 20
28 43 20
29 43 20
30 -18 14
31 -18 14
32 -18 14
33 -18 14
34 -18 14
35 38 -16
36 38 -16
37 -21 41
38 -21 41
39 -21 41
40 -21 41
41 -21 41
42 -21 41
43 -1 -23
44 -1 -23
45 -1 -23
46 -1 -23
47 7 36
48 7 36
49 7 36
50 20 7
51 20 7
52 20 7
53 -1 30
54 -1 30
55 -1 30
56 -1 30
57 -1 30
58 -1 30
59 15 -8
60 15 -8
61 15 -8
62 15 -8
63 15 -8
64 35 -4
65 35 -4
66 -10 -39
67 -10 -39
68 -29 -22
69 -29 -22
70 -29 -22
71 -29 -22
72 -29 -22
73 -22 -10
74 -22 -10
75 -22 -10
76 -22 -10
77 -22 -10
78 37 -19
79 37 -19
80 37 -19
81 37 -19
82 37 -19
83 -13 33
84 -13 33
85 48 39
86 48 39
87 -34 -3
88 -34 -3
89 -34 -3
90 -34 -3
91 -34 -3
92 -34 -3
93 -14 29
94 -14 29
95 -14 29
96 -14 29
97 -14 29
98 -14 29
99 -14 29
100 -36 30
101 -36 30
102 -36 30
103 -36 30
104 -36 30
105 -36 30
106 34 7
107 34 7
108 -38 41
109 -38 41
110 -38 41
111 -38 41
112 -38 41
113 -33 34
114 -33 34
115 -33 34
116 -33 34
117 -33 34
118 6 -50
119 6 -50
120 6 -50
121 6 -50
122 6 -50
123 -4 1
124 -4 1
125 -4 1
126 -4 1
127 -43 50
128 -43 50
129 2 2
130 2 2
131 2 2
132 2 2
133 -15 23
134 -15 23
135 -15 23
136 -15 23
137 -15 23
138 -46 -37
139 -46 -37
140 -46 -37
141 -46 -37
142 30 44
143 30 44
144 30 44
145 30 44
146 30 44
147 30 44
148 14 23
149 14 23
150 14 23
151 36 -16
152 36 -16
153 36 -16
154 36 -16
155 36 -16
156 32 -23
157 32 -23
158 32 -23
159 32 -23
160 -25 13
161 -25 13
162 -25 13
163 -25 13
164 -25 13
165 -25 13
166 40 -22
167 40 -22
168 -42 34
169 -42 34
170 -42 34
171 -42 34
172 -42 34
173 39 9
174 39 9
175 -23 -13
176 -23 -13
177 -23 -13
178 -23 -13
179 -46 10
180 -46 10
181 -46 10
182 -46 10
183 -23 23
184 -23 23
185 -23 23
186 -23 23
187 -23 23
188 -23 23
189 -17 -27
190 -21 -30
191 -21 -30
192 -21 -30
193 -21 -30
194 50 17
195 50 17
196 50 17
197 -31 -15
198 -31 -15
199 -31 -15
200 33 -14
201 33 -14
202 33 -14
203 33 -14
204 -10 -43
205 -10 -43
206 -10 -43
207 -10 -43
208 -10 -43
209 -44 -47
210 -44 -47
211 -9 31
212 -9 31
213 -9 31
214 29 -6
215 29 -6
216 29 -6
217 38 -31
218 38 -31
219 38 -31
220 22 0
221 22 0
222 22 0
223 16 40
224 16 40
225 16 40
226 16 40
227 16 40
228 -31 18
229 -31 18
230 -31 18
231 -20 -28
232 -20 -28
233 -20 -28
234 -20 -28
235 -20 -28
236 -20 -28
237 -27 -27
238 -27 -27
239 -27 -27
240 -27 -27
241 -27 -27
242 -27 -27
243 -40 -21
244 -40 -21
245 -40 -21
246 -40 -21
247 -49 -39
248 -49 -39
249 13 20
250 13 20
251 13 20
252 13 20
253 13 20
254 5 2
255 5 2
256 5 2
257 -46 -44
258 -46 -44
259 -46 -44
260 -46 -44
261 -46 -44
262 -19 39
263 -19 39
264 19 -1
265 19 -1
266 19 -1
267 19 -1
268 34 -45
269 34 -45
270 34 -45
271 34 -45
272 34 -45
273 34 -45
274 42 42
275 42 42
276 42 42
277 42 42
278 42 42
279 42 33
280 42 33
281 42 33
282 42 33
283 42 33
284 42 33
285 -28 18
286 -28 18
287 -28 18
288 -28 18
289 -28 18
290 -28 18
291 37 -10
292 37 -10
293 37 -10
294 37 -10
295 37 -10
296 37 -10
297 22 -45
298 22 -45
299 22 -45
300 22 -45
301 22 -45
302 -22 -37
303 -22 -37
304 -22 -37
305 36 -46
306 36 -46
307 36 -46
308 36 -46
309 -12 -12
310 -12 -12
311 -12 -12
312 -12 -12
313 -12 -12
314 -25 -40
315 -25 -40
316 -25 -40
317 -25 -40
318 -25 -40
319 -25 -40
320 -49 -27
321 -49 -27
322 -49 -27
323 -49 -27
324 25 -24
325 25 -24
326 25 -24
327 25 -24
328 32 28
329 32 28
330 36 10
331 36 10
332 36 10
333 36 10
334 36 10
335 36 10
336 -3 41
337 -3 41
338 -3 41
339 -3 41
340 -3 41
341 27 37
342 27 37
343 27 37
344 27 37
345 27 37
346 27 37
347 -15 10
348 -15 10
349 -15 10
350 -15 10
351 26 -50
352 26 -50
353 26 -50
354 26 -50
355 -19 20
356 -19 20
357 -19 20
358 -19 20
359 -19 20
360 -26 17
361 -26 17
362 -24 -8
363 -24 -8
364 -24 -8
365 -24 -8
366 -24 -8
367 -24 -8
368 -17 28
369 -17 28
370 -17 28
371 -17 28
372 21 26
373 21 26
374 21 26
375 -25 -8
376 -25 -8
377 -25 -8
378 -25 -8
379 39 24
380 39 24
381 39 24
382 39 24
383 7 31
384 7 31
385 1 9
386 1 9
387 1 9
388 1 9
389 1 9
390 16 8
391 16 8
392 16 8
393 29 49
394 29 49
395 29 49
396 37 33
397 37 33
398 37 33
399 37 33
400 -43 -1
401 -43 -1
402 -43 -1
403 -43 -1
404 -43 -1
405 -43 -1
406 -40 -25
407 -40 -25
408 -40 -25
409 -40 -25
410 -40 -25
411 -29 31
412 -29 31
413 -29 31
414 -29 31
415 -29 31
416 -19 -16
417 -19 -16
418 -19 -16
419 -19 -16
420 -19 -16
421 -19 -16
DEMAND_SECTION
1 0
2 10
3 5
4 1
5 1
6 1
7 1
8 20
9 10
10 1
11 1
12 1
13 20
14 10
15 1
16 20
17 20
18 1
19 20
20 20
21 5
22 1
23 20
24 10
25 5
26 1
27 1
28 1
29 1
30 10
31 1
32 1
33 1
34 1
35 10
36 5
37 20
38 10
39 1
40 1
41 1
42 1
43 10
44 5
45 1
46 1
47 20
48 1
49 1
50 20
51 1
52 1
53 10
54 5
55 1
56 1
57 1
58 1
59 20
60 1
61 1
62 1
63 1
64 10
65 5
66 20
67 1
68 20
69 20
70 1
71 1
72 1
73 20
74 10
75 1
76 1
77 1
78 20
79 5
80 1
81 1
82 1
83 10
84 5
85 20
86 10
87 10
88 5
89 1
90 1
91 1
92 1
93 20
94 10
95 5
96 1
97 1
98 1
99 1
100 20
101 20
102 1
103 1
104 1
105 1
106 10
107 5
108 20
109 10
110 5
111 1
112 1
113 20
114 5
115 1
116 1
117 1
118 20
119 5
120 1
121 1
122 1
123 20
124 20
125 5
126 1
127 20
128 1
129 10
130 5
131 1
132 1
133 20
134 20
135 1
136 1
137 1
138 20
139 5
140 1
141 1
142 20
143 5
144 1
145 1
146 1
147 1
148 20
149 20
150 1
151 10
152 5
153 1
154 1
155 1
156 10
157 1
158 1
159 1
160 20
161 20
162 5
163 1
164 1
165 1
166 20
167 5
168 20
169 5
170 1
171 1
172 1
173 20
174 1
175 10
176 5
177 1
178 1
179 10
180 1
181 1
182 1
183 20
184 10
185 5
186 1
187 1
188 1
189 20
190 20
191 20
192 1
193 1
194 20
195 1
196 1
197 10
198 5
199 1
200 20
201 10
202 5
203 1
204 20
205 20
206 1
207 1
208 1
209 20
210 1
211 20
212 5
213 1
214 20
215 20
216 5
217 20
218 1
219 1
220 10
221 5
222 1
223 20
224 20
225 5
226 1
227 1
228 20
229 5
230 1
231 10
232 5
233 1
234 1
235 1
236 1
237 20
238 20
239 1
240 1
241 1
242 1
243 20
244 20
245 1
246 1
247 20
248 10
249 20
250 5
251 1
252 1
253 1
254 20
255 10
256 5
257 10
258 5
259 1
260 1
261 1
262 20
263 1
264 10
265 1
266 1
267 1
268 20
269 10
270 1
271 1
272 1
273 1
274 20
275 1
276 1
277 1
278 1
279 20
280 20
281 1
282 1
283 1
284 1
285 20
286 20
287 1
288 1
289 1
290 1
291 20
292 20
293 1
294 1
295 1
296 1
297 20
298 20
299 1
300 1
301 1
302 20
303 1
304 1
305 10
306 1
307 1
308 1
309 20
310 5
311 1
312 1
313 1
314 20
315 20
316 1
317 1
318 1
319 1
320 20
321 5
322 1
323 1
324 20
325 5
326 1
327 1
328 20
329 10
330 20
331 5
332 1
333 1
334 1
335 1
336 20
337 1
338 1
339 1
340 1
341 20
342 5
343 1
344 1
345 1
346 1
347 10
348 1
349 1
350 1
351 20
352 20
353 1
354 1
355 20
356 5
357 1
358 1
359 1
360 10
361 5
362 20
363 20
364 1
365 1
366 1
367 1
368 10
369 5
370 1
371 1
372 20
373 20
374 10
375 20
376 20
377 1
378 1
379 10
380 5
381 1
382 1
383 20
384 5
385 20
386 10
387 5
388 1
389 1
390 20
391 5
392 1
393 20
394 5
395 1
396 10
397 5
398 1
399 1
400 20
401 20
402 1
403 1
404 1
405 1
406 20
407 10
408 1
409 1
410 1
411 20
412 20
413 5
414 1
415 1
416 20
417 20
418 1
419 1
420 1
421 1
DEPOT_SECTION
1
-1
EOF