Normalized Data/p03_8_normalized_split0.sol
420 -5 2 1 3 6 4 207 205 206 204 203 65 66 42 44 43 45 -12 13 14 118 119 117 121 120 19 21 18 -16 416 415 417 419 418 420 312 311 309 310 308 -17 15 75 73 76 375 374 377 376 361 365 366 364 363 -20 350 352 353 351 297 298 299 300 296 -32 29 30 31 33 359 360 286 284 288 285 287 289 228 229 227 -57 56 53 55 54 52 10 11 8 9 7 47 48 46 382 383 -58 61 60 59 62 215 213 214 219 221 220 265 264 263 266 -64 63 290 295 292 294 293 291 201 199 200 202 -69 70 71 67 68 197 196 198 175 177 174 176 74 72 -103 101 102 169 170 167 171 168 127 126 109 107 108 111 110 184 355 356 -106 105 331 334 333 329 330 332 51 49 50 389 391 390 -123 125 122 164 162 159 160 161 163 346 349 -124 354 185 182 187 183 136 133 135 132 134 -131 129 130 128 253 254 255 388 386 387 385 384 -150 151 152 154 153 35 34 77 81 79 78 80 165 166 156 158 155 157 -173 172 195 193 194 28 27 22 26 23 24 25 380 381 378 379 -178 180 179 181 402 403 404 400 399 401 86 91 87 89 88 90 362 -186 411 40 37 41 38 36 39 262 261 337 338 339 336 335 -188 301 302 303 315 313 314 317 318 316 234 233 230 -208 209 259 258 256 257 260 247 246 139 138 137 140 407 408 -211 210 212 83 82 93 98 92 94 95 97 96 369 367 368 370 -224 226 222 225 223 344 342 343 341 340 345 371 -232 235 231 189 191 190 192 236 239 240 237 238 241 -243 244 245 242 320 319 321 322 405 406 409 -248 252 251 250 249 149 148 147 372 373 -272 270 269 268 267 271 305 307 306 304 218 217 216 324 326 325 323 -280 278 283 282 279 281 84 85 274 273 277 276 275 398 397 -327 328 396 395 141 142 143 144 146 145 392 394 393 -347 348 104 99 100 113 115 112 116 114 413 414 412 410 358 357 0 





OBJ=
2750.663
BEST_KNOWN=
0.000